/*********************************************
 * OPL 12.6.0.0 Data
 * Author: Adrian Rodriguez Bazaga, Pau Rodriguez Esmerats
 * Creation Date: 09/12/2017 at 00:43:03
 *********************************************/

maxConsec=10;
maxPresence=18;
maxHours=2;
minHours=1;
hours=20;
demand= [4 6 6 5 2 2 0 0 0 0 0 0 0 0 0 0 0 0 0 0  ];
nNurses=6;
